Ti2 O4
1.0
-0.000000 -0.000000 2.969203
4.653272 -0.000000 0.000000
0.000000 4.653272 0.000000
Ti O
2 4
direct
0.000000 0.000000 0.000000 Ti
0.500000 0.500000 0.500000 Ti
0.500000 0.195420 0.804580 O
0.500000 0.804580 0.195420 O
0.000000 0.695420 0.695420 O
0.000000 0.304580 0.304580 O
